
List of user-set options:

                                    Name   Value                used
                         derivative_test = first-order           yes
                        file_print_level = 5                     yes
                   hessian_approximation = limited-memory        yes
                                  hsllib = /home/ggs24/packages/ThirdParty-HSL/.libs/libcoinhsl.so  yes
                           linear_solver = ma97                  yes
                                max_iter = 1000                  yes
                             output_file = IPOPT.out             yes
                             print_level = 5                     yes
                      print_user_options = yes                   yes
                                      sb = yes                   yes
                                     tol = 1e-06                 yes
This is Ipopt version 3.14.7, running with linear solver ma97.

Starting derivative checker for first derivatives.

* grad_f[         12] =  9.3740000014037796e-05    ~  9.3755623689540551e-05  [ 1.562e-04]
* jac_g [    4,   20] = -2.1094237467877974e-15 v  ~  7.0118314461984826e-08  [ 7.012e-04]
* jac_g [  118,   20] = -2.1086205831334725e-15 v  ~  7.0118314461984826e-08  [ 7.012e-04]
* jac_g [    5,   21] = -2.1094237467877974e-15 v  ~ -1.2902964444698408e-08  [ 1.290e-04]
* jac_g [  117,   21] =  1.0990683131608809e-04 v  ~  1.0992178776710182e-04  [ 1.361e-04]
* jac_g [    4,   24] = -2.7755575615628914e-15 v  ~  2.7495146438007787e-08  [ 2.750e-04]
* jac_g [  118,   24] = -2.8299907826265024e-15 v  ~  2.7495146438007787e-08  [ 2.750e-04]
* grad_f[         25] = -3.2558209011925134e-05    ~ -3.2537220235463611e-05  [ 2.099e-04]
* jac_g [    5,   25] = -2.7755575615628914e-15 v  ~ -4.0914454870120859e-08  [ 4.091e-04]

Derivative checker detected 9 error(s).

Number of nonzeros in equality constraint Jacobian...:      232
Number of nonzeros in inequality constraint Jacobian.:     9686
Number of nonzeros in Lagrangian Hessian.............:        0

Total number of variables............................:       29
                     variables with only lower bounds:        1
                variables with lower and upper bounds:       28
                     variables with only upper bounds:        0
Total number of equality constraints.................:        8
Total number of inequality constraints...............:      334
        inequality constraints with only lower bounds:        0
   inequality constraints with lower and upper bounds:      334
        inequality constraints with only upper bounds:        0

iter    objective    inf_pr   inf_du lg(mu)  ||d||  lg(rg) alpha_du alpha_pr  ls
   0  1.0000000e+00 8.52e-01 9.29e-01   0.0 0.00e+00    -  0.00e+00 0.00e+00   0
   1  9.9768267e-01 7.50e-01 1.99e+02   0.1 3.03e+01    -  8.86e-01 1.02e-01f  1
   2  9.9712827e-01 5.01e-01 2.54e+02   1.4 1.84e+01    -  1.61e-01 2.79e-01H  1
   3  9.9747458e-01 2.60e-01 3.74e+02  -5.3 1.53e+00    -  1.95e-01 4.91e-01h  1
   4  9.9749624e-01 2.22e-01 3.20e+02  -5.4 5.76e-01    -  2.57e-01 1.44e-01h  1
   5  9.9771051e-01 6.01e-03 5.98e+01  -0.3 4.83e-01    -  3.94e-01 9.90e-01f  1
   6  9.9762348e-01 6.15e-05 5.56e-01  -5.7 1.79e-02    -  9.84e-01 9.90e-01h  1
   7  9.9740380e-01 5.72e-07 4.67e-03  -7.4 4.76e-02    -  9.86e-01 9.91e-01h  1
   8  9.9710067e-01 1.72e-10 7.42e-02  -9.3 6.06e-02    -  9.23e-01 1.00e+00h  1
   9  9.9708627e-01 2.22e-15 2.43e-03  -5.8 2.43e-03    -  1.00e+00 1.00e+00h  1
iter    objective    inf_pr   inf_du lg(mu)  ||d||  lg(rg) alpha_du alpha_pr  ls
  10  9.9707187e-01 1.11e-15 2.44e-03  -7.5 2.44e-03    -  1.00e+00 1.00e+00h  1
  11  9.9705746e-01 1.78e-15 2.45e-03  -9.5 2.44e-03    -  1.00e+00 1.00e+00h  1
  12  9.9704307e-01 6.66e-16 2.45e-03 -11.0 2.45e-03    -  1.00e+00 1.00e+00h  1
  13  9.9639908e-01 6.66e-16 2.55e-03  -9.0 1.32e+02    -  2.94e-03 8.96e-04f  1
  14  9.9639704e-01 6.11e-16 1.28e-01  -8.9 1.22e+02    -  1.00e+00 3.09e-06h  1
  15  9.9372042e-01 5.55e-16 4.93e-02  -6.9 6.27e+01    -  4.40e-03 9.97e-03h  1
  16  9.9368948e-01 7.77e-16 1.07e+00  -7.8 6.19e+00    -  8.15e-01 8.36e-04h  1
  17  9.9334049e-01 1.89e-03 6.06e-01  -5.8 4.36e+00    -  2.08e-03 1.34e-02h  1
  18  9.9330365e-01 2.20e-03 5.02e+01  -6.3 3.64e+00    -  9.99e-01 1.68e-03h  1
  19  9.9330204e-01 2.15e-03 1.12e+01 -11.0 2.00e-01    -  7.47e-01 8.38e-02h  1
iter    objective    inf_pr   inf_du lg(mu)  ||d||  lg(rg) alpha_du alpha_pr  ls
  20  9.9329963e-01 1.78e-15 1.10e-01  -5.5 1.83e-01    -  1.00e+00 1.00e+00h  1
  21  9.8952080e-01 2.72e-02 2.68e+01  -5.9 2.54e+00    -  3.07e-01 1.72e-01h  1
  22  9.8881641e-01 2.76e-02 3.15e+01 -11.0 3.30e+00    -  4.88e-02 2.87e-02h  1
  23  9.8834120e-01 2.79e-02 3.66e+01 -11.0 2.77e+00    -  4.53e-02 2.26e-02h  1
  24  9.8835126e-01 2.44e-02 1.56e+02  -6.7 1.18e-01    -  6.74e-01 1.23e-01h  1
  25  9.8421288e-01 1.28e-01 8.48e+01  -4.4 1.82e+01    -  6.50e-02 4.67e-02h  1
  26  9.8389425e-01 1.17e-01 1.37e+02 -11.0 1.59e+00    -  2.70e-01 8.58e-02h  1
  27  9.8318142e-01 9.15e-02 8.67e+01  -6.3 1.28e+00    -  1.73e-01 2.56e-01h  1
  28  9.8295587e-01 8.49e-02 4.14e+01  -5.4 1.30e+00    -  2.83e-01 8.27e-02h  1
  29  9.8385208e-01 1.11e-15 8.91e-02  -4.0 9.35e-02    -  1.00e+00 1.00e+00h  1
iter    objective    inf_pr   inf_du lg(mu)  ||d||  lg(rg) alpha_du alpha_pr  ls
  30  9.8362929e-01 5.72e-15 5.08e+02  -4.4 6.74e-02    -  9.00e-01 1.00e+00h  1
  31  9.7873623e-01 6.36e-02 1.25e+03 -10.3 2.51e+00    -  3.05e-01 5.14e-01h  1
  32  9.7435327e-01 9.41e-02 9.64e+02  -4.8 3.10e+00    -  2.65e-01 3.88e-01h  1
  33  9.7098805e-01 3.64e-01 5.42e+02  -5.2 6.21e+00    -  2.85e-01 1.75e-01h  1
  34  9.7097839e-01 3.65e-01 1.08e+02  -5.3 5.95e-01    -  3.96e-01 2.04e-02h  1
  35  9.7069294e-01 3.76e-01 2.86e+02  -4.9 8.34e-01    -  2.43e-01 1.00e+00h  1
  36  9.7111521e-01 1.12e-01 1.25e+02  -5.0 3.30e-01    -  6.56e-01 9.66e-01h  1
  37  9.7114251e-01 5.34e-02 1.68e+01  -4.9 3.15e-01    -  5.21e-01 1.00e+00h  1
  38  9.7081235e-01 4.01e-02 2.86e+02  -5.6 2.85e-01    -  5.74e-01 8.66e-01h  1
  39  9.7077196e-01 3.84e-02 1.70e+02 -11.0 1.04e+00    -  2.04e-01 5.07e-02h  1
iter    objective    inf_pr   inf_du lg(mu)  ||d||  lg(rg) alpha_du alpha_pr  ls
  40  9.7034541e-01 1.08e-01 1.32e+02  -5.4 4.14e+00    -  2.37e-01 1.63e-01h  1
  41  9.7033350e-01 9.64e-02 3.63e+01  -7.4 5.19e-01    -  4.28e-01 1.17e-01h  1
  42  9.7105577e-01 6.64e-02 1.25e+02  -5.3 1.33e+00    -  2.19e-01 8.15e-01H  1
  43  9.7030263e-01 6.35e-02 2.75e+01  -5.6 5.42e-01    -  6.45e-01 1.00e+00h  1
  44  9.7047746e-01 2.84e-03 3.97e-04  -5.3 9.98e-02    -  1.00e+00 1.00e+00h  1
  45  9.7046989e-01 3.58e-03 1.04e+00  -5.8 8.46e-02    -  9.97e-01 1.00e+00h  1
  46  9.7046407e-01 6.62e-03 4.00e-04  -6.6 1.50e-01    -  1.00e+00 1.00e+00h  1
  47  9.7043974e-01 2.69e-03 2.64e-04  -6.3 7.01e-02    -  1.00e+00 1.00e+00h  1
  48  9.7043175e-01 1.72e-03 5.77e+00  -6.6 1.07e-01    -  7.53e-01 9.99e-01h  1
  49  9.7040945e-01 9.93e-04 2.51e-04  -6.2 5.17e-02    -  1.00e+00 1.00e+00h  1
iter    objective    inf_pr   inf_du lg(mu)  ||d||  lg(rg) alpha_du alpha_pr  ls
  50  9.7042991e-01 2.10e-13 3.05e-04  -7.1 7.86e-02    -  1.00e+00 1.00e+00H  1
  51  9.7041154e-01 4.58e-04 2.59e-04  -7.3 3.73e-02    -  1.00e+00 1.00e+00h  1
  52  9.7041785e-01 1.17e-15 2.94e-04  -7.3 5.39e-02    -  1.00e+00 1.00e+00H  1
  53  9.7039573e-01 1.81e-04 1.63e-02  -6.9 2.52e-02    -  9.98e-01 1.00e+00h  1
  54  9.7039262e-01 1.99e-04 2.42e+01  -6.4 2.32e-01    -  1.00e+00 5.42e-02h  5
  55  9.7039222e-01 1.67e-16 3.17e+00  -6.5 1.32e-02    -  5.82e-01 1.00e+00h  1
  56  9.7038832e-01 5.57e-05 1.25e-04  -7.7 1.59e-02    -  1.00e+00 1.00e+00h  1
  57  9.7038709e-01 3.31e-07 5.89e-02  -6.6 9.84e-03    -  1.00e+00 9.97e-01h  1
  58  9.7038623e-01 8.88e-16 1.52e+01  -8.5 9.42e-03    -  9.72e-01 3.48e-01h  1
  59  9.7038543e-01 8.62e-06 1.64e-03  -8.7 4.80e-03    -  1.00e+00 1.00e+00h  1
iter    objective    inf_pr   inf_du lg(mu)  ||d||  lg(rg) alpha_du alpha_pr  ls
  60  9.7038464e-01 8.09e-05 2.01e-04  -9.4 1.91e-02    -  1.00e+00 1.00e+00h  1
  61  9.7038309e-01 9.56e-05 2.41e-04  -9.5 2.63e-02    -  1.00e+00 1.00e+00h  1
  62  9.7037779e-01 2.79e-04 3.45e-04 -10.5 4.20e-02    -  1.00e+00 1.00e+00h  1
  63  9.7037538e-01 3.99e-04 2.15e-01  -8.5 1.47e-01    -  1.00e+00 2.36e-01h  2
  64  9.7037108e-01 1.90e-04 1.05e+01  -6.5 3.76e-02    -  1.00e+00 6.27e-01h  1
  65  9.7036329e-01 8.19e-05 1.49e-04  -6.9 2.57e-02    -  1.00e+00 1.00e+00h  1
  66  9.7035619e-01 6.02e-04 3.25e-04  -8.0 8.89e-02    -  1.00e+00 1.00e+00h  1
  67  9.7022602e-01 1.48e-02 4.44e-04  -7.6 4.32e-01    -  1.00e+00 1.00e+00h  1
  68  9.6979101e-01 5.90e-02 1.26e+02  -5.6 1.07e+00    -  8.47e-02 6.22e-01h  1
  69  9.6900492e-01 1.17e-01 5.58e+01  -6.0 1.42e+00    -  6.16e-01 4.87e-01h  1
iter    objective    inf_pr   inf_du lg(mu)  ||d||  lg(rg) alpha_du alpha_pr  ls
  70  9.6947366e-01 2.24e-04 2.19e-02  -5.1 2.21e-02    -  1.00e+00 1.00e+00h  1
  71  9.6890602e-01 1.17e-02 3.63e+01  -5.2 1.88e-01    -  6.33e-01 1.00e+00h  1
  72  9.6868134e-01 5.31e-03 4.13e+00  -5.4 1.88e-01    -  9.86e-01 1.00e+00h  1
  73  9.6836844e-01 2.01e-02 7.91e+00  -6.0 3.92e-01    -  6.41e-01 6.62e-01h  1
  74  9.6823024e-01 2.90e-02 3.08e+01  -6.1 9.86e-01    -  5.10e-01 2.14e-01h  1
  75  9.6822022e-01 2.85e-02 7.64e+01  -6.4 8.84e-01    -  4.70e-01 1.96e-02h  1
  76  9.6830374e-01 2.00e-03 4.15e-04  -5.8 8.16e-02    -  1.00e+00 1.00e+00h  1
  77  9.6828798e-01 3.56e-04 2.55e-04  -5.9 3.61e-02    -  1.00e+00 1.00e+00h  1
  78  9.6827873e-01 1.02e-04 1.66e-04  -6.9 1.96e-02    -  1.00e+00 1.00e+00h  1
  79  9.6826448e-01 9.14e-04 2.33e-04  -6.1 4.39e-02    -  1.00e+00 1.00e+00h  1
iter    objective    inf_pr   inf_du lg(mu)  ||d||  lg(rg) alpha_du alpha_pr  ls
  80  9.6919189e-01 7.73e-12 1.25e+03  -4.8 4.84e-01    -  1.68e-01 1.00e+00H  1
  81  9.6821468e-01 2.56e-02 9.78e+01  -5.6 3.96e-01    -  1.00e+00 9.25e-01h  1
  82  9.6817414e-01 2.21e-02 7.23e+01  -5.6 3.30e-01    -  9.93e-02 2.60e-01h  1
  83  9.6823144e-01 5.44e-03 6.28e-04  -5.2 1.10e-01    -  1.00e+00 1.00e+00f  1
  84  9.6819968e-01 1.76e-03 8.75e-01  -5.8 7.78e-02    -  9.98e-01 1.00e+00h  1
  85  9.6813734e-01 1.55e-03 5.59e-04  -5.6 1.12e-01    -  1.00e+00 1.00e+00h  1
  86  9.6794866e-01 6.10e-02 1.18e-03  -5.3 4.22e-01    -  1.00e+00 1.00e+00h  1
  87  9.6778103e-01 3.89e-02 1.93e-01  -5.6 2.89e-01    -  9.99e-01 1.00e+00h  1
  88  9.6805283e-01 2.14e-11 1.47e-03  -4.9 2.81e-01    -  1.00e+00 1.00e+00H  1
  89  9.6756775e-01 1.95e-02 9.02e-04  -4.7 2.84e-01    -  1.00e+00 1.00e+00h  1
iter    objective    inf_pr   inf_du lg(mu)  ||d||  lg(rg) alpha_du alpha_pr  ls
  90  9.6752406e-01 1.08e-02 1.46e+01  -5.3 1.89e-01    -  9.92e-01 1.00e+00h  1
  91  9.6735189e-01 2.10e-02 5.94e-04  -5.1 2.01e-01    -  1.00e+00 1.00e+00h  1
  92  9.6736743e-01 7.78e-03 1.23e+00  -5.9 1.57e-01    -  9.98e-01 1.00e+00h  1
  93  9.6731198e-01 4.40e-03 6.09e+01 -11.0 9.37e-02    -  4.94e-01 9.49e-01h  1
  94  9.6760210e-01 2.44e-03 1.87e-03  -5.8 3.52e-01    -  1.00e+00 1.00e+00H  1
  95  9.6722426e-01 1.34e-02 4.45e-04  -5.8 1.65e-01    -  1.00e+00 1.00e+00h  1
  96  9.6724550e-01 3.93e-03 2.41e-04  -6.3 7.83e-02    -  1.00e+00 1.00e+00h  1
  97  9.6720435e-01 3.65e-03 5.48e-04  -6.8 6.15e-02    -  1.00e+00 1.00e+00h  1
  98  9.6720069e-01 6.64e-04 6.00e-04  -7.0 3.51e-02    -  1.00e+00 1.00e+00h  1
  99  9.6717939e-01 3.28e-03 7.57e-04  -7.8 9.32e-02    -  1.00e+00 1.00e+00h  1
iter    objective    inf_pr   inf_du lg(mu)  ||d||  lg(rg) alpha_du alpha_pr  ls
 100  9.6711650e-01 2.13e-02 9.61e+01  -5.8 5.74e-01    -  1.00e+00 3.88e-01h  1
 101  9.6709581e-01 1.68e-02 6.69e+01  -7.1 2.68e-01    -  3.60e-01 4.58e-01h  1
 102  9.6706002e-01 9.20e-03 4.54e+01  -6.9 1.67e-01    -  5.04e-01 1.00e+00h  1
 103  9.6704117e-01 2.76e-03 3.93e+01 -11.0 8.93e-02    -  3.23e-01 1.00e+00h  1
 104  9.6700598e-01 5.08e-04 2.52e-04  -6.9 5.48e-02    -  1.00e+00 1.00e+00h  1
 105  9.6702500e-01 4.15e-14 3.88e-04  -7.8 7.69e-02    -  1.00e+00 1.00e+00H  1
 106  9.6699996e-01 1.34e-03 8.40e+00  -6.4 1.12e-01    -  1.00e+00 7.68e-01h  1
 107  9.6697618e-01 3.61e-02 5.00e+00  -6.5 6.71e-01    -  3.85e-01 6.02e-01h  1
 108  9.6732764e-01 3.18e-02 3.79e+01  -5.7 4.05e-01    -  1.00e+00 7.47e-01h  1
 109  9.6697081e-01 1.05e-02 1.29e+01  -5.8 1.89e-01    -  2.79e-01 1.00e+00h  1
iter    objective    inf_pr   inf_du lg(mu)  ||d||  lg(rg) alpha_du alpha_pr  ls
 110  9.6707049e-01 5.45e-03 1.47e+01  -6.1 3.10e-01    -  6.98e-01 8.40e-01H  1
 111  9.6697850e-01 4.41e-03 3.27e+00  -6.0 9.74e-02    -  1.00e+00 6.11e-01h  1
 112  9.6693241e-01 1.51e-02 4.56e-04  -5.8 1.54e-01    -  1.00e+00 1.00e+00f  1
 113  9.6740400e-01 8.59e-03 1.60e+02  -5.3 4.06e-01    -  5.32e-01 1.00e+00H  1
 114  9.6684298e-01 7.24e-02 7.26e-04  -5.6 3.32e-01    -  1.00e+00 1.00e+00h  1
 115  9.6784458e-01 8.29e-03 2.06e-03  -5.1 8.06e-01    -  1.00e+00 1.00e+00H  1
 116  9.6683338e-01 7.23e-02 7.00e+01  -5.2 4.03e-01    -  5.53e-01 1.00e+00h  1
 117  9.6703965e-01 2.78e-02 7.19e+00  -5.2 1.53e-01    -  8.97e-01 1.00e+00h  1
 118  9.6701984e-01 4.37e-03 3.94e-04  -5.2 1.16e-01    -  1.00e+00 1.00e+00h  1
 119  9.6711962e-01 4.44e-16 9.47e-04  -5.2 1.36e-01    -  1.00e+00 1.00e+00H  1
iter    objective    inf_pr   inf_du lg(mu)  ||d||  lg(rg) alpha_du alpha_pr  ls
 120  9.6700178e-01 2.42e-03 5.80e-04  -5.2 8.49e-02    -  1.00e+00 1.00e+00h  1
 121  9.6713675e-01 2.22e-16 6.82e-04  -5.2 1.43e-01    -  1.00e+00 1.00e+00H  1
 122  9.6703069e-01 2.58e-03 5.13e-04  -5.2 7.15e-02    -  1.00e+00 1.00e+00h  1
 123  9.6713750e-01 6.66e-16 1.08e-03  -5.2 1.37e-01    -  1.00e+00 1.00e+00H  1
 124  9.6703653e-01 2.78e-16 5.53e-04  -5.2 9.48e-02    -  1.00e+00 1.00e+00h  1
 125  9.6707388e-01 1.78e-15 7.09e-04  -5.2 1.06e-01    -  1.00e+00 1.00e+00H  1
 126  9.6701026e-01 8.88e-16 5.06e-04  -5.2 6.25e-02    -  1.00e+00 1.00e+00h  1
 127  9.6726713e-01 8.88e-16 1.51e-03  -5.2 1.71e-01    -  1.00e+00 1.00e+00H  1
 128  9.6698379e-01 3.65e-03 3.29e-04  -5.7 1.34e-01    -  1.00e+00 1.00e+00h  1
 129  9.6725200e-01 1.40e-12 9.96e-04  -6.3 1.65e-01    -  1.00e+00 1.00e+00H  1
iter    objective    inf_pr   inf_du lg(mu)  ||d||  lg(rg) alpha_du alpha_pr  ls
 130  9.6700971e-01 1.98e-03 2.81e-02  -6.4 9.51e-02    -  9.97e-01 1.00e+00h  1
 131  9.6697960e-01 2.50e-03 6.18e-03  -6.4 6.52e-01    -  7.98e-01 1.09e-01h  4
 132  9.6696296e-01 1.16e-04 2.46e-04  -7.5 2.23e-02    -  1.00e+00 1.00e+00h  1
 133  9.6700024e-01 3.28e-15 6.88e-04  -7.6 6.21e-02    -  1.00e+00 1.00e+00H  1
 134  9.6694852e-01 1.55e-04 2.23e-04  -7.3 4.32e-02    -  1.00e+00 1.00e+00h  1
 135  9.6695069e-01 1.69e-05 3.67e-04  -6.8 2.11e-02    -  1.00e+00 1.00e+00h  1
 136  9.6694479e-01 4.76e-06 9.21e-05  -8.3 9.34e-03    -  1.00e+00 1.00e+00h  1
 137  9.6694261e-01 3.34e-05 1.97e-04  -9.9 1.10e-02    -  1.00e+00 1.00e+00h  1
 138  9.6693982e-01 4.65e-05 1.11e-04 -11.0 1.77e-02    -  1.00e+00 1.00e+00h  1
 139  9.6693925e-01 4.92e-05 1.19e-01  -8.8 7.01e-02    -  1.00e+00 1.77e-01h  2
iter    objective    inf_pr   inf_du lg(mu)  ||d||  lg(rg) alpha_du alpha_pr  ls
 140  9.6693734e-01 3.24e-05 2.19e-02  -8.9 2.62e-02    -  1.00e+00 7.56e-01h  1
 141  9.6693612e-01 8.74e-04 3.76e-04  -9.8 1.54e-01    -  1.00e+00 1.00e+00h  1
 142  9.6693304e-01 8.70e-04 1.74e-01  -8.7 1.02e+00    -  1.00e+00 2.48e-02h  1
 143  9.6693256e-01 8.65e-04 7.43e-01  -8.1 4.19e-01    -  1.00e+00 7.20e-03h  1
 144  9.6692805e-01 3.87e-03 5.43e-01  -8.2 6.67e-01    -  6.21e-03 3.37e-01h  1
 145  9.6692395e-01 2.63e-03 1.96e-01  -8.2 9.08e-02    -  1.00e+00 5.00e-01f  2
 146  9.6691641e-01 7.59e-04 2.27e-02  -8.2 4.05e-02    -  9.90e-01 9.18e-01h  1
 147  9.6690924e-01 7.71e-05 2.44e-01  -6.7 5.40e-02    -  1.00e+00 9.87e-01h  1
 148  9.6690697e-01 8.61e-05 6.94e+00  -7.0 1.38e-01    -  8.82e-01 5.09e-02h  1
 149  9.6690214e-01 1.70e-04 1.42e-01  -7.0 3.87e-02    -  1.00e+00 9.84e-01h  1
iter    objective    inf_pr   inf_du lg(mu)  ||d||  lg(rg) alpha_du alpha_pr  ls
 150  9.6692346e-01 4.65e-13 2.35e-04  -6.4 1.06e-01    -  1.00e+00 1.00e+00H  1
 151  9.6689893e-01 1.11e-03 1.38e-01  -6.6 7.78e-02    -  1.00e+00 9.92e-01h  1
 152  9.6700802e-01 5.59e-13 1.11e-03  -6.4 2.81e-01    -  1.00e+00 1.00e+00H  1
 153  9.6693292e-01 1.96e-03 5.06e-04  -6.5 1.32e-01    -  1.00e+00 1.00e+00h  1
 154  9.6697993e-01 1.43e-04 9.73e-04  -6.5 3.64e-01    -  1.00e+00 1.00e+00H  1
 155  9.6692557e-01 3.58e-03 3.15e-04  -6.5 2.06e-01    -  5.95e-01 1.00e+00h  1
 156  9.6695281e-01 6.66e-16 7.70e-04  -6.5 1.97e-01    -  4.87e-01 1.00e+00H  1
 157  9.6689510e-01 1.85e-03 3.59e-04  -6.5 1.60e-01    -  1.00e+00 1.00e+00h  1
 158  9.6692277e-01 7.07e-04 5.54e-04  -6.6 4.84e-02    -  1.00e+00 1.00e+00h  1
 159  9.6688768e-01 3.65e-04 2.77e-04  -6.7 3.81e-02    -  1.00e+00 1.00e+00h  1
iter    objective    inf_pr   inf_du lg(mu)  ||d||  lg(rg) alpha_du alpha_pr  ls
 160  9.6689237e-01 3.69e-05 4.65e-04  -6.9 1.58e-02    -  1.00e+00 1.00e+00h  1
 161  9.6688528e-01 6.31e-05 1.03e-04  -7.9 2.58e-02    -  1.00e+00 1.00e+00h  1
 162  9.6688608e-01 5.37e-05 2.29e-04  -8.7 1.15e-02    -  1.00e+00 1.00e+00h  1
 163  9.6688424e-01 1.20e-05 1.70e-04  -8.9 5.69e-03    -  1.00e+00 1.00e+00h  1
 164  9.6688401e-01 4.36e-05 3.20e-04  -9.8 1.41e-02    -  1.00e+00 1.00e+00h  1
 165  9.6688346e-01 1.34e-05 1.71e-04  -8.4 4.50e-03    -  1.00e+00 1.00e+00h  1
 166  9.6688246e-01 6.78e-06 7.67e-02 -10.0 4.44e-03    -  8.22e-01 1.00e+00h  1
 167  9.6688273e-01 1.78e-15 1.30e-04 -10.0 5.20e-03    -  1.00e+00 1.00e+00H  1
 168  9.6688157e-01 9.03e-06 1.10e-04  -8.9 6.62e-03    -  1.00e+00 1.00e+00h  1
 169  9.6688163e-01 7.77e-16 9.40e-05 -10.0 8.91e-03    -  1.00e+00 1.00e+00H  1
iter    objective    inf_pr   inf_du lg(mu)  ||d||  lg(rg) alpha_du alpha_pr  ls
 170  9.6688283e-01 2.22e-16 1.39e-04  -9.8 1.55e-02    -  1.00e+00 1.00e+00H  1
 171  9.6687968e-01 4.44e-05 1.88e-04 -10.0 7.32e-03    -  1.00e+00 1.00e+00h  1
 172  9.6688109e-01 3.25e-05 3.40e-04 -10.5 5.95e-03    -  1.00e+00 1.00e+00h  1
 173  9.6687912e-01 1.47e-05 1.29e-04 -11.0 4.81e-03    -  1.00e+00 1.00e+00h  1
 174  9.6687903e-01 2.16e-05 1.25e-04 -11.0 1.02e-02    -  1.00e+00 1.00e+00h  1
 175  9.6687864e-01 1.10e-05 3.37e-02  -9.0 4.52e-03    -  1.00e+00 6.60e-01h  1
 176  9.6687888e-01 6.15e-06 1.37e-04  -8.7 2.94e-03    -  1.00e+00 1.00e+00h  1
 177  9.6687848e-01 4.04e-06 5.75e-05 -10.2 2.38e-03    -  1.00e+00 1.00e+00h  1
 178  9.6687838e-01 9.60e-07 1.85e-05 -11.0 1.49e-03    -  1.00e+00 1.00e+00h  1
 179  9.6687835e-01 2.59e-07 5.61e-05 -11.0 1.42e-03    -  1.00e+00 1.00e+00h  1
iter    objective    inf_pr   inf_du lg(mu)  ||d||  lg(rg) alpha_du alpha_pr  ls
 180  9.6687867e-01 2.22e-16 5.05e-05 -11.0 8.81e-03    -  1.00e+00 1.00e+00H  1
 181  9.6687856e-01 5.25e-08 3.97e-05 -10.7 2.87e-03    -  1.00e+00 1.43e-01h  1
 182  9.6687906e-01 3.65e-09 1.73e-04 -11.0 5.08e-03    -  1.00e+00 1.00e+00H  1
 183  9.6687857e-01 6.13e-06 1.44e-04 -11.0 3.14e-03    -  1.00e+00 1.00e+00h  1
In iteration 183, 1 Slack too small, adjusting variable bound
 184  9.6687836e-01 3.79e-06 7.59e-05 -11.0 2.28e-03    -  1.00e+00 4.54e-01h  1
 185  9.6687865e-01 4.27e-06 1.48e-04 -11.0 2.28e-03    -  1.00e+00 1.00e+00h  1
 186  9.6687824e-01 1.88e-06 3.62e-05 -11.0 1.49e-03    -  1.00e+00 1.00e+00h  1
 187  9.6687823e-01 7.79e-08 1.71e-05 -11.0 4.59e-04    -  1.00e+00 1.00e+00h  1
 188  9.6687823e-01 1.61e-08 4.68e-06 -11.0 1.97e-04    -  1.00e+00 1.00e+00h  1
 189  9.6687822e-01 1.22e-15 4.32e-06 -11.0 1.66e-04    -  1.00e+00 1.00e+00h  1
iter    objective    inf_pr   inf_du lg(mu)  ||d||  lg(rg) alpha_du alpha_pr  ls
 190  9.6687822e-01 1.40e-08 3.82e-06 -11.0 5.83e-04    -  1.00e+00 1.00e+00h  1
 191  9.6687826e-01 1.78e-15 3.20e-05 -11.0 3.80e-03    -  1.00e+00 1.00e+00H  1
 192  9.6687827e-01 1.78e-15 4.22e-05 -11.0 8.12e-04    -  1.00e+00 1.00e+00H  1
 193  9.6687821e-01 3.10e-07 1.93e-05 -11.0 2.12e-03    -  1.00e+00 1.00e+00h  1
 194  9.6687827e-01 1.94e-07 8.63e-05 -11.0 5.68e-04    -  1.00e+00 1.00e+00h  1
 195  9.6687821e-01 1.71e-07 2.68e-06 -11.0 7.01e-04    -  1.00e+00 1.00e+00h  1
 196  9.6687821e-01 5.55e-16 1.89e-06 -11.0 1.61e-04    -  1.00e+00 1.00e+00h  1
 197  9.6687826e-01 7.77e-16 4.21e-05 -11.0 8.20e-03    -  1.00e+00 1.00e+00H  1
 198  9.6687858e-01 1.78e-15 7.13e-05 -11.0 3.23e-03    -  1.00e+00 1.00e+00H  1
 199  9.6687829e-01 7.98e-06 6.84e-05 -10.4 1.02e-02    -  1.00e+00 1.00e+00h  1
iter    objective    inf_pr   inf_du lg(mu)  ||d||  lg(rg) alpha_du alpha_pr  ls
 200  9.6687822e-01 9.11e-06 7.10e-04 -10.5 2.17e-02    -  1.00e+00 9.55e-02h  4
 201  9.6687844e-01 2.14e-06 6.17e-05 -10.5 5.20e-03    -  1.00e+00 1.00e+00h  1
 202  9.6687827e-01 2.75e-06 4.58e-05 -10.5 3.05e-03    -  1.00e+00 1.00e+00h  1
 203  9.6687892e-01 7.77e-16 1.21e-04 -10.5 1.19e-02    -  8.46e-01 1.00e+00H  1
 204  9.6687843e-01 2.22e-16 4.63e-05 -10.5 7.31e-03    -  1.00e+00 1.00e+00H  1
 205  9.6688035e-01 5.55e-16 2.37e-04 -10.5 7.40e-03    -  1.00e+00 1.00e+00H  1
 206  9.6687841e-01 1.78e-15 5.56e-05 -10.5 4.13e-03    -  1.00e+00 1.00e+00H  1
In iteration 206, 1 Slack too small, adjusting variable bound
 207  9.6687827e-01 7.67e-07 7.94e-05 -10.5 2.63e-03    -  1.00e+00 7.95e-01h  1
 208  9.6687821e-01 1.15e-07 1.70e-05 -10.5 7.05e-04    -  1.00e+00 1.00e+00h  1
 209  9.6687821e-01 1.93e-08 3.79e-06 -10.5 2.59e-04    -  1.00e+00 1.00e+00h  1
iter    objective    inf_pr   inf_du lg(mu)  ||d||  lg(rg) alpha_du alpha_pr  ls
 210  9.6687821e-01 1.58e-08 5.92e-06 -11.0 2.63e-04    -  1.00e+00 1.00e+00h  1
 211  9.6687821e-01 8.88e-16 1.34e-05 -11.0 3.79e-04    -  1.00e+00 1.00e+00H  1
 212  9.6687820e-01 6.17e-09 2.55e-06 -11.0 1.43e-04    -  1.00e+00 1.00e+00h  1
 213  9.6687820e-01 1.78e-15 7.86e-07 -11.0 6.93e-05    -  1.00e+00 1.00e+00h  1

Number of Iterations....: 213

                                   (scaled)                 (unscaled)
Objective...............:   9.6687820213608877e-01    9.6687820213608877e-01
Dual infeasibility......:   7.8559161589057236e-07    7.8559161589057236e-07
Constraint violation....:   1.7763568394002505e-15    1.7763568394002505e-15
Variable bound violation:   0.0000000000000000e+00    0.0000000000000000e+00
Complementarity.........:   1.0000001868774650e-11    1.0000001868774650e-11
Overall NLP error.......:   7.8559161589057236e-07    7.8559161589057236e-07


Number of objective function evaluations             = 280
Number of objective gradient evaluations             = 214
Number of equality constraint evaluations            = 280
Number of inequality constraint evaluations          = 280
Number of equality constraint Jacobian evaluations   = 214
Number of inequality constraint Jacobian evaluations = 214
Number of Lagrangian Hessian evaluations             = 0
Total seconds in IPOPT                               = 13.938

EXIT: Optimal Solution Found.
